p edge 64 512
e 1 29
e 1 17
e 1 47
e 1 50
e 1 64
e 1 26
e 1 19
e 1 28
e 1 5
e 1 36
e 1 55
e 1 9
e 1 57
e 1 12
e 1 59
e 1 14
e 2 15
e 2 62
e 2 9
e 2 51
e 2 27
e 2 24
e 2 11
e 2 34
e 2 8
e 2 16
e 2 26
e 2 42
e 2 17
e 2 30
e 2 19
e 2 23
e 2 64
e 2 46
e 2 32
e 2 40
e 2 54
e 2 33
e 2 14
e 2 21
e 3 38
e 3 41
e 3 61
e 3 55
e 3 46
e 3 53
e 3 8
e 3 11
e 3 29
e 3 5
e 3 64
e 3 58
e 3 48
e 3 45
e 3 52
e 3 12
e 4 56
e 4 18
e 4 8
e 4 53
e 4 10
e 4 51
e 4 54
e 4 22
e 4 40
e 4 19
e 4 59
e 4 16
e 4 21
e 5 43
e 5 14
e 5 38
e 5 28
e 5 39
e 5 37
e 5 50
e 5 30
e 5 36
e 6 14
e 6 26
e 6 20
e 6 61
e 6 7
e 6 37
e 6 16
e 6 17
e 6 32
e 6 62
e 6 43
e 6 38
e 6 35
e 6 51
e 6 40
e 6 12
e 6 23
e 7 28
e 7 58
e 7 42
e 7 50
e 7 60
e 7 61
e 7 36
e 7 54
e 7 11
e 7 37
e 7 62
e 7 39
e 7 52
e 8 51
e 8 55
e 8 50
e 8 34
e 8 49
e 8 37
e 8 13
e 8 33
e 8 11
e 8 48
e 9 16
e 9 13
e 9 51
e 9 62
e 9 31
e 9 60
e 9 35
e 9 40
e 9 27
e 9 44
e 10 16
e 10 25
e 10 27
e 10 29
e 10 17
e 10 32
e 10 19
e 10 14
e 10 41
e 10 52
e 10 37
e 11 21
e 11 61
e 11 48
e 11 41
e 11 54
e 11 30
e 11 49
e 11 31
e 11 59
e 11 22
e 11 62
e 11 16
e 11 18
e 11 44
e 11 63
e 11 33
e 11 53
e 12 25
e 12 14
e 12 33
e 12 32
e 12 60
e 12 51
e 12 26
e 12 36
e 12 39
e 12 59
e 12 50
e 13 54
e 13 34
e 13 21
e 13 32
e 13 62
e 13 30
e 13 35
e 13 39
e 13 19
e 13 59
e 14 32
e 14 54
e 14 21
e 14 35
e 14 36
e 14 30
e 14 22
e 14 45
e 14 42
e 15 35
e 15 43
e 15 46
e 15 50
e 15 41
e 15 52
e 15 60
e 15 64
e 15 47
e 15 21
e 15 28
e 16 54
e 16 61
e 16 56
e 16 23
e 16 26
e 16 34
e 16 35
e 16 29
e 16 55
e 16 43
e 16 58
e 16 62
e 16 53
e 16 19
e 16 46
e 16 33
e 16 60
e 17 34
e 17 47
e 17 49
e 17 38
e 17 28
e 17 24
e 17 26
e 17 61
e 17 31
e 17 30
e 17 44
e 17 55
e 17 60
e 17 20
e 17 45
e 17 32
e 17 29
e 17 56
e 18 53
e 18 41
e 18 31
e 18 45
e 18 46
e 18 42
e 18 33
e 18 54
e 18 24
e 18 61
e 18 40
e 18 21
e 19 63
e 19 59
e 19 42
e 19 28
e 19 39
e 19 54
e 19 49
e 19 34
e 20 48
e 20 44
e 20 41
e 20 35
e 20 28
e 20 33
e 20 31
e 20 37
e 20 43
e 20 51
e 21 46
e 21 43
e 21 48
e 21 35
e 21 25
e 21 51
e 22 52
e 22 43
e 22 29
e 22 28
e 22 62
e 22 24
e 22 37
e 22 49
e 22 35
e 22 56
e 22 46
e 22 40
e 23 27
e 23 40
e 23 34
e 23 64
e 23 57
e 23 29
e 23 37
e 23 24
e 24 37
e 24 45
e 24 58
e 24 39
e 24 63
e 24 59
e 24 61
e 24 57
e 24 40
e 24 26
e 24 52
e 24 32
e 25 48
e 25 62
e 25 54
e 25 38
e 25 35
e 25 40
e 25 31
e 25 27
e 25 39
e 25 43
e 25 64
e 25 42
e 25 56
e 25 60
e 26 28
e 26 49
e 26 37
e 26 32
e 26 64
e 27 42
e 27 43
e 27 48
e 27 63
e 27 54
e 27 55
e 27 34
e 27 37
e 27 39
e 27 53
e 28 50
e 28 44
e 28 45
e 28 64
e 28 37
e 28 36
e 28 32
e 28 42
e 28 53
e 28 58
e 28 46
e 28 41
e 28 52
e 28 57
e 28 47
e 28 40
e 29 49
e 29 48
e 29 31
e 29 39
e 29 55
e 30 61
e 30 46
e 30 57
e 30 32
e 30 44
e 30 53
e 30 48
e 30 31
e 30 41
e 30 62
e 31 59
e 31 43
e 31 39
e 31 49
e 31 44
e 31 64
e 31 50
e 31 36
e 31 48
e 31 60
e 32 35
e 32 60
e 32 62
e 32 53
e 33 61
e 33 63
e 33 49
e 33 37
e 33 60
e 33 59
e 33 56
e 33 62
e 34 52
e 34 53
e 34 57
e 34 61
e 34 37
e 34 51
e 34 59
e 35 58
e 35 48
e 35 64
e 35 63
e 35 41
e 35 40
e 35 57
e 35 50
e 35 53
e 36 55
e 36 58
e 36 52
e 36 64
e 36 50
e 36 62
e 36 60
e 36 51
e 36 49
e 36 44
e 37 43
e 37 42
e 37 54
e 37 41
e 37 49
e 37 40
e 37 38
e 38 42
e 38 60
e 38 59
e 38 46
e 38 62
e 38 47
e 38 55
e 38 56
e 39 47
e 39 51
e 39 49
e 39 53
e 39 52
e 39 50
e 39 58
e 40 42
e 40 56
e 40 63
e 40 55
e 40 53
e 40 60
e 40 45
e 40 59
e 40 61
e 41 60
e 41 59
e 41 44
e 41 51
e 41 53
e 41 57
e 41 64
e 41 56
e 43 59
e 43 51
e 43 62
e 43 54
e 43 47
e 43 53
e 44 53
e 44 54
e 44 56
e 44 46
e 44 59
e 44 64
e 44 60
e 44 55
e 45 46
e 45 54
e 45 50
e 45 57
e 45 61
e 45 48
e 46 58
e 46 60
e 46 51
e 46 47
e 46 55
e 47 48
e 47 63
e 47 57
e 47 56
e 48 63
e 49 64
e 49 51
e 49 62
e 50 61
e 50 57
e 51 60
e 51 57
e 51 54
e 51 59
e 52 60
e 52 54
e 52 58
e 52 59
e 53 63
e 53 60
e 53 61
e 53 55
e 54 64
e 54 61
e 55 57
e 55 63
e 56 57
e 56 62
e 56 60
e 56 59
e 57 63
e 57 59
e 57 58
e 58 60
e 58 59
e 59 60
e 59 62
e 61 64
e 61 63
e 61 62
